Version identifier: 20.1.0.0 | 2020-11-10 | 9bedb6d68
Found incumbent of value 0.000000 after 0.00 sec. (0.00 ticks)
Tried aggregator 2 times.
MIP Presolve eliminated 91 rows and 26 columns.
MIP Presolve modified 11 coefficients.
Aggregator did 36 substitutions.
Reduced MIP has 48 rows, 51 columns, and 148 nonzeros.
Reduced MIP has 33 binaries, 0 generals, 0 SOSs, and 16 indicators.
Presolve time = 0.00 sec. (0.32 ticks)
Probing fixed 0 vars, tightened 9 bounds.
Probing changed sense of 9 constraints.
Probing time = 0.00 sec. (0.13 ticks)
Tried aggregator 1 time.
MIP Presolve eliminated 44 rows and 43 columns.
MIP Presolve modified 52 coefficients.
Reduced MIP has 4 rows, 8 columns, and 18 nonzeros.
Reduced MIP has 8 binaries, 0 generals, 0 SOSs, and 0 indicators.
Presolve time = 0.00 sec. (0.15 ticks)
Probing time = 0.00 sec. (0.00 ticks)
Tried aggregator 1 time.
MIP Presolve eliminated 2 rows and 5 columns.
MIP Presolve modified 5 coefficients.
Reduced MIP has 2 rows, 3 columns, and 4 nonzeros.
Reduced MIP has 3 binaries, 0 generals, 0 SOSs, and 0 indicators.
Presolve time = 0.00 sec. (0.01 ticks)
Probing time = 0.00 sec. (0.00 ticks)
Tried aggregator 1 time.
MIP Presolve eliminated 2 rows and 3 columns.
All rows and columns eliminated.
Presolve time = 0.00 sec. (0.00 ticks)

Root node processing (before b&c):
  Real time             =    0.01 sec. (0.70 ticks)
Parallel b&c, 10 threads:
  Real time             =    0.00 sec. (0.00 ticks)
  Sync time (average)   =    0.00 sec.
  Wait time (average)   =    0.00 sec.
                          ------------
Total (root+branch&cut) =    0.01 sec. (0.70 ticks)
